Route #1: 38 65 66 59
Route #2: 43 41 42 64 22 61
Route #3: 39 31 25 55 18 50
Route #4: 74 21 47 5 15 57
Route #5: 63 23 56 24 49 16
Route #6: 36 69 71 60 70 20 37 29
Route #7: 53 11 14 35
Route #8: 28 62 1 73 33
Route #9: 8 19 54 13 27 52
Route #10: 40 12 72 10 58
Route #11: 9 32 44 3 51
Route #12: 68 2 30 48 45
Route #13: 34 46 7 26
Route #14: 6 17
Route #15: 75 4 67
Cost 1054.599368161235